#######################
Slurm job id: 17497813_76
Running on machine: p31
Running cmd: /nfs/shared/static-builds/gurobi1003 SOFTMEMLIMIT=125 MIPFocus=3 Presolve=2 TimeLimit=500 seed=15 /nfs/models/miplib2010/k16x240.mps.bz2
#######################
Set parameter TimeLimit to value 500
Set parameter SoftMemLimit to value 125
Set parameter MIPFocus to value 3
Set parameter LogFile to value 1003-MIPFocus3-Presolve2-TimeLimit500-k16x240-5.log
Set parameter Presolve to value 2
Set parameter Seed to value 15
Using license file /opt/gurobi/gurobi.lic

Gurobi Optimizer version 10.0.3 build v10.0.3rc0 (linux64)
Copyright (c) 2023, Gurobi Optimization, LLC

Read MPS format model from file /nfs/models/miplib2010/k16x240.mps.bz2
Reading time = 0.00 seconds
k16x240: 256 rows, 480 columns, 960 nonzeros

CPU model: Intel(R) Xeon(R) E-2388G CPU @ 3.20GHz, instruction set [SSE2|AVX|AVX2|AVX512]
Thread count: 8 physical cores, 16 logical processors, using up to 16 threads

Optimize a model with 256 rows, 480 columns and 960 nonzeros
Model fingerprint: 0x4e80885f
Variable types: 240 continuous, 240 integer (240 binary)
Coefficient statistics:
  Matrix range     [1e+00, 1e+03]
  Objective range  [1e+00, 1e+03]
  Bounds range     [1e+00, 1e+03]
  RHS range        [4e+00, 4e+02]
Found heuristic solution: objective 16199.000000
Presolve time: 0.00s
Presolved: 256 rows, 480 columns, 960 nonzeros
Variable types: 240 continuous, 240 integer (240 binary)
Root relaxation presolve removed 241 rows and 240 columns
Root relaxation presolved: 15 rows, 240 columns, 450 nonzeros


Root relaxation: objective 2.769838e+03, 16 iterations, 0.00 seconds (0.00 work units)

    Nodes    |    Current Node    |     Objective Bounds      |     Work
 Expl Unexpl |  Obj  Depth IntInf | Incumbent    BestBd   Gap | It/Node Time

     0     0 2769.83800    0   14 16199.0000 2769.83800  82.9%     -    0s
H    0     0                    11359.000000 2769.83800  75.6%     -    0s
H    0     0                    11261.000000 8116.87580  27.9%     -    0s
H    0     0                    11240.000000 8116.87580  27.8%     -    0s
H    0     0                    11164.000000 8116.87580  27.3%     -    0s
H    0     0                    11110.000000 8116.87580  26.9%     -    0s
H    0     0                    11077.000000 8116.87580  26.7%     -    0s
     0     0 8116.87580    0   26 11077.0000 8116.87580  26.7%     -    0s
H    0     0                    11068.000000 8116.87580  26.7%     -    0s
H    0     0                    11001.000000 8614.55423  21.7%     -    0s
     0     0 8748.93137    0   24 11001.0000 8748.93137  20.5%     -    0s
     0     0 8957.53407    0   39 11001.0000 8957.53407  18.6%     -    0s
H    0     0                    10948.000000 8957.53407  18.2%     -    0s
     0     0 9025.45571    0   34 10948.0000 9025.45571  17.6%     -    0s
     0     0 9034.25342    0   40 10948.0000 9034.25342  17.5%     -    0s
     0     0 9095.54645    0   37 10948.0000 9095.54645  16.9%     -    0s
     0     0 9135.17904    0   32 10948.0000 9135.17904  16.6%     -    0s
     0     0 9193.81730    0   41 10948.0000 9193.81730  16.0%     -    0s
     0     0 9193.81730    0   41 10948.0000 9193.81730  16.0%     -    0s
H    0     0                    10917.000000 9193.81730  15.8%     -    0s
H    0     0                    10678.000000 9193.81730  13.9%     -    0s
     0     2 9193.81730    0   41 10678.0000 9193.81730  13.9%     -    0s
H 1130  1129                    10674.000000 9662.32297  9.48%  36.6    0s
  4050  3083 10405.1617   31   38 10674.0000 10244.4145  4.02%  77.2    5s
 14423  8417     cutoff   34      10674.0000 10443.9446  2.16%  60.8   10s
 32916 10924     cutoff   32      10674.0000 10575.2081  0.93%  45.8   15s

Cutting planes:
  Lift-and-project: 6
  Implied bound: 10
  MIR: 140
  Flow cover: 509
  Flow path: 30
  Zero half: 44
  Network: 19
  Relax-and-lift: 6

Explored 53179 nodes (1844358 simplex iterations) in 17.49 seconds (31.69 work units)
Thread count was 16 (of 16 available processors)

Solution count 10: 10674 10678 10917 ... 11240

Optimal solution found (tolerance 1.00e-04)
Best objective 1.067400000000e+04, best bound 1.067307615267e+04, gap 0.0087%
